p cnf 269 460
23 0
-23 24 0
10 24 0
-23 10 25 0
7 26 0
6 26 0
7 6 27 0
1 26 0
7 1 27 0
6 1 27 0
7 6 1 28 0
-24 29 0
-25 30 0
-26 29 0
-27 30 0
-28 31 0
-24 -26 30 0
-24 -27 31 0
-24 -28 32 0
-25 -26 31 0
-25 -27 32 0
-25 -28 33 0
-13 34 0
-12 34 0
-13 -12 35 0
-34 36 0
-35 37 0
-30 36 0
-32 37 0
-34 -30 37 0
-34 -32 38 0
-35 -30 38 0
-38 0
39 0
-39 40 0
-10 40 0
-39 -10 41 0
-7 42 0
-6 42 0
-7 -6 43 0
-1 42 0
-7 -1 43 0
-6 -1 43 0
-7 -6 -1 44 0
-40 45 0
-41 46 0
-42 45 0
-43 46 0
-44 47 0
-40 -42 46 0
-40 -43 47 0
-40 -44 48 0
-41 -42 47 0
-41 -43 48 0
-41 -44 49 0
13 50 0
12 50 0
13 12 51 0
-50 52 0
-51 53 0
-46 52 0
-48 53 0
-50 -46 53 0
-50 -48 54 0
-51 -46 54 0
-54 0
55 0
-55 56 0
9 56 0
-55 9 57 0
8 56 0
-55 8 57 0
9 8 57 0
-55 9 8 58 0
7 59 0
6 59 0
7 6 60 0
2 59 0
7 2 60 0
6 2 60 0
7 6 2 61 0
-56 62 0
-57 63 0
-58 64 0
-59 62 0
-60 63 0
-61 64 0
-56 -59 63 0
-56 -60 64 0
-56 -61 65 0
-57 -59 64 0
-57 -60 65 0
-57 -61 66 0
-58 -59 65 0
-58 -60 66 0
-58 -61 67 0
-67 0
-15 68 0
-63 68 0
-65 69 0
-67 70 0
-15 -63 69 0
-15 -65 70 0
-70 0
71 0
-9 72 0
-8 72 0
-9 -8 73 0
-7 74 0
-6 74 0
-7 -6 75 0
-2 74 0
-7 -2 75 0
-6 -2 75 0
-7 -6 -2 76 0
-72 77 0
-73 78 0
-74 77 0
-75 78 0
-76 79 0
-72 -74 78 0
-72 -75 79 0
-72 -76 80 0
-73 -74 79 0
-73 -75 80 0
-80 0
15 81 0
-78 81 0
-80 82 0
15 -78 82 0
-82 0
83 0
-10 84 0
-7 84 0
-10 -7 85 0
-3 84 0
-10 -3 85 0
-7 -3 85 0
-10 -7 -3 86 0
17 87 0
-85 87 0
17 -85 88 0
-88 0
89 0
10 90 0
7 90 0
10 7 91 0
3 90 0
10 3 91 0
7 3 91 0
10 7 3 92 0
-89 93 0
-90 93 0
-91 94 0
-92 95 0
-89 -90 94 0
-89 -91 95 0
-89 -92 96 0
-96 0
-17 97 0
-94 97 0
-96 98 0
-17 -94 98 0
-98 0
99 0
7 100 0
6 100 0
7 6 101 0
4 100 0
7 4 101 0
6 4 101 0
7 6 4 102 0
10 103 0
-100 103 0
-101 104 0
-102 105 0
10 -100 104 0
10 -101 105 0
10 -102 106 0
-106 0
-19 107 0
-104 107 0
-106 108 0
-19 -104 108 0
-108 0
109 0
-7 110 0
-6 110 0
-7 -6 111 0
-4 110 0
-7 -4 111 0
-6 -4 111 0
-7 -6 -4 112 0
-10 113 0
-110 113 0
-111 114 0
-112 115 0
-10 -110 114 0
-10 -111 115 0
-10 -112 116 0
-116 0
19 117 0
-114 117 0
-116 118 0
19 -114 118 0
-118 0
119 0
10 120 0
9 120 0
10 9 121 0
8 122 0
6 122 0
8 6 123 0
5 122 0
8 5 123 0
6 5 123 0
8 6 5 124 0
-120 125 0
-121 126 0
-122 125 0
-123 126 0
-124 127 0
-120 -122 126 0
-120 -123 127 0
-120 -124 128 0
-121 -122 127 0
-121 -123 128 0
-121 -124 129 0
-22 130 0
-21 130 0
-22 -21 131 0
-130 132 0
-131 133 0
-126 132 0
-128 133 0
-130 -126 133 0
-130 -128 134 0
-131 -126 134 0
-134 0
135 0
-135 136 0
-10 136 0
-135 -10 137 0
-9 136 0
-135 -9 137 0
-10 -9 137 0
-135 -10 -9 138 0
-8 139 0
-6 139 0
-8 -6 140 0
-5 139 0
-8 -5 140 0
-6 -5 140 0
-8 -6 -5 141 0
-136 142 0
-137 143 0
-138 144 0
-139 142 0
-140 143 0
-141 144 0
-136 -139 143 0
-136 -140 144 0
-136 -141 145 0
-137 -139 144 0
-137 -140 145 0
-137 -141 146 0
-138 -139 145 0
-138 -140 146 0
-138 -141 147 0
-147 0
22 148 0
21 148 0
22 21 149 0
-148 150 0
-149 151 0
-143 150 0
-145 151 0
-147 152 0
-148 -143 151 0
-148 -145 152 0
-149 -143 152 0
-152 0
-13 12 0
-22 21 0
-153 0
-1 154 0
-2 154 0
-1 -2 155 0
-3 156 0
-4 156 0
-3 -4 157 0
-154 158 0
-156 158 0
-154 -156 159 0
-155 160 0
-157 160 0
-155 -157 161 0
-159 162 0
-160 162 0
-159 -160 163 0
-5 164 0
-6 164 0
-5 -6 165 0
-7 166 0
-8 166 0
-7 -8 167 0
-164 168 0
-166 168 0
-164 -166 169 0
-165 170 0
-167 170 0
-165 -167 171 0
-169 172 0
-170 172 0
-169 -170 173 0
-158 174 0
-168 174 0
-158 -168 175 0
-163 176 0
-173 176 0
-163 -173 177 0
-175 178 0
-176 178 0
-175 -176 179 0
-162 180 0
-172 180 0
-162 -172 181 0
-161 182 0
-171 182 0
-161 -171 183 0
-181 184 0
-182 184 0
-181 -182 185 0
-178 186 0
-180 186 0
-178 -180 187 0
-179 188 0
-184 188 0
-179 -184 189 0
-177 190 0
-185 190 0
-177 -185 191 0
-9 192 0
-10 192 0
-9 -10 193 0
-153 194 0
-153 194 0
-153 -153 195 0
-192 196 0
-194 196 0
-192 -194 197 0
-193 198 0
-195 198 0
-193 -195 199 0
-197 200 0
-198 200 0
-197 -198 201 0
-153 202 0
-153 202 0
-153 -153 203 0
-153 204 0
-153 204 0
-153 -153 205 0
-202 206 0
-204 206 0
-202 -204 207 0
-203 208 0
-205 208 0
-203 -205 209 0
-207 210 0
-208 210 0
-207 -208 211 0
-196 212 0
-206 212 0
-196 -206 213 0
-201 214 0
-211 214 0
-201 -211 215 0
-213 216 0
-214 216 0
-213 -214 217 0
-200 218 0
-210 218 0
-200 -210 219 0
-199 220 0
-209 220 0
-199 -209 221 0
-219 222 0
-220 222 0
-219 -220 223 0
-216 224 0
-218 224 0
-216 -218 225 0
-217 226 0
-222 226 0
-217 -222 227 0
-215 228 0
-223 228 0
-215 -223 229 0
-174 230 0
-212 230 0
-174 -212 231 0
-189 232 0
-227 232 0
-189 -227 233 0
-231 234 0
-232 234 0
-231 -232 235 0
-187 236 0
-225 236 0
-187 -225 237 0
-191 238 0
-229 238 0
-191 -229 239 0
-237 240 0
-238 240 0
-237 -238 241 0
-234 242 0
-236 242 0
-234 -236 243 0
-235 244 0
-240 244 0
-235 -240 245 0
-186 246 0
-224 246 0
-186 -224 247 0
-190 248 0
-228 248 0
-190 -228 249 0
-247 250 0
-248 250 0
-247 -248 251 0
-188 252 0
-226 252 0
-188 -226 253 0
-183 254 0
-221 254 0
-183 -221 255 0
-253 256 0
-254 256 0
-253 -254 257 0
-250 258 0
-252 258 0
-250 -252 259 0
-251 260 0
-256 260 0
-251 -256 261 0
-242 262 0
-246 262 0
-242 -246 263 0
-243 264 0
-258 264 0
-243 -258 265 0
-244 266 0
-259 266 0
-244 -259 267 0
-245 268 0
-260 268 0
-245 -260 269 0
-265 0
